(declare-fun temp154_1 () (_ BitVec 64))
(declare-fun temp154_2 () (_ BitVec 64))
(declare-fun var82411 () (_ BitVec 64))
(declare-fun k!0 () Bool)
(declare-fun ARGNAME_input_NAMEEND_DIM () (_ BitVec 64))
(declare-fun temp154_3 () (_ BitVec 64))
(declare-fun var82440 () (_ BitVec 64))
(declare-fun var82441 () (_ BitVec 64))
(declare-fun temp154_4 () (_ BitVec 64))
(declare-fun ARGNAME_sections_NAMEEND () (_ BitVec 64))
(declare-fun var82444 () (_ BitVec 64))
(declare-fun temp154_5 () (_ BitVec 64))
(declare-fun var82455 () (_ BitVec 64))
(declare-fun temp154_6 () (_ BitVec 64))
(declare-fun temp154_7 () (_ BitVec 64))
(declare-fun ARGNAME_input_NAMEEND_DIMSIZE
             ()
             (Array (_ BitVec 64) (_ BitVec 64)))
(declare-fun temp154_8 () (_ BitVec 64))
(declare-fun temp154_9 () (_ BitVec 64))
(declare-fun temp154_10 () (_ BitVec 64))
(declare-fun temp154_11 () (_ BitVec 64))
(declare-fun temp154_12 () (_ BitVec 64))
(declare-fun temp154_13 () (_ BitVec 64))
(declare-fun temp154_14 () (_ BitVec 64))
(declare-fun temp154_15 () (_ BitVec 64))
(declare-fun temp154_16 () (_ BitVec 64))
(declare-fun temp154_17 () (_ BitVec 64))
(declare-fun temp154_18 () (_ BitVec 64))
(declare-fun temp154_19 () (_ BitVec 64))
(declare-fun temp154_20 () (_ BitVec 64))
(declare-fun temp154_21 () (_ BitVec 64))
(declare-fun temp154_22 () (_ BitVec 64))
(declare-fun temp154_23 () (_ BitVec 64))
(declare-fun temp154_25 () (_ BitVec 64))
(declare-fun temp154_26 () (_ BitVec 64))
(declare-fun temp154_24 () (_ BitVec 64))
(declare-fun var82459 () (_ BitVec 64))
(declare-fun temp154_27 () (_ BitVec 64))
(declare-fun var82460 () (_ BitVec 64))
(declare-fun temp154_28 () (_ BitVec 64))
(declare-fun var82496 () (_ BitVec 64))
(declare-fun var140605 () (_ BitVec 64))
(declare-fun temp154_29 () (_ BitVec 64))
(declare-fun var140635 () (_ BitVec 64))
(declare-fun temp154_30 () (_ BitVec 64))
(declare-fun temp154_31 () (_ BitVec 64))
(declare-fun var140664 () (_ BitVec 64))
(declare-fun temp154_32 () (_ BitVec 64))
(declare-fun temp154_34 () (_ BitVec 64))
(declare-fun temp154_33 () (_ BitVec 64))
(declare-fun temp154_36 () (_ BitVec 64))
(declare-fun temp154_35 () (_ BitVec 64))
(declare-fun var462146 () (_ BitVec 64))
(declare-fun temp154_37 () (_ BitVec 64))
(declare-fun temp154_38 () (_ BitVec 64))
(declare-fun var527687 () (_ BitVec 64))
(declare-fun var593234 () (_ BitVec 64))
(declare-fun temp154_39 () (_ BitVec 64))
(declare-fun var1130139 () (_ BitVec 64))
(declare-fun temp154_40 () (_ BitVec 64))
(declare-fun var1130188 () (_ BitVec 64))
(declare-fun temp154_41 () (_ BitVec 64))
(declare-fun temp154_42 () (_ BitVec 64))
(declare-fun var1380938 () (_ BitVec 64))
(declare-fun temp154_43 () (_ BitVec 64))
(declare-fun var2101834 () (_ BitVec 64))
(declare-fun temp154_44 () (_ BitVec 64))
(declare-fun var1130305 () (_ BitVec 64))
(declare-fun temp154_45 () (_ BitVec 64))
(declare-fun temp154_46 () (_ BitVec 64))
(declare-fun var3422876 () (_ BitVec 64))
(declare-fun var3422880 () (_ BitVec 64))
(declare-fun temp154_47 () (_ BitVec 64))
(declare-fun temp154_48 () (_ BitVec 64))
(declare-fun var4072313 () (_ BitVec 64))
(declare-fun var4072317 () (_ BitVec 64))
(declare-fun temp154_49 () (_ BitVec 64))
(declare-fun temp154_50 () (_ BitVec 64))
(declare-fun var4399993 () (_ BitVec 64))
(declare-fun var4399997 () (_ BitVec 64))
(declare-fun temp154_52 () (_ BitVec 64))
(declare-fun temp154_51 () (_ BitVec 64))
(assert (= temp154_1 #x0000000000000001))
(assert (= var82411
   (ite (bvslt ARGNAME_input_NAMEEND_DIM temp154_1)
        #x0000000000000001
        #x0000000000000000)))
(assert (= temp154_2 #x0000000000000000))
(assert (= var82411 temp154_2))
(assert (= temp154_3 #x0000000000000001))
(assert (= var82440
   (ite (distinct ARGNAME_input_NAMEEND_DIM temp154_3)
        #x0000000000000001
        #x0000000000000000)))
(assert (= var82441 var82440))
(assert (= temp154_4 #x0000000000000000))
(assert (= var82444
   (ite (= ARGNAME_sections_NAMEEND temp154_4)
        #x0000000000000001
        #x0000000000000000)))
(assert (= temp154_5 #x0000000000000000))
(assert (= var82444 temp154_5))
(assert (= var82455 var82441))
(assert (= temp154_6 #x0000000000000000))
(assert (= temp154_7 temp154_6))
(assert (= temp154_8 (select ARGNAME_input_NAMEEND_DIMSIZE temp154_7)))
(assert (= temp154_9 #x0000000000000001))
(assert (= temp154_10 temp154_9))
(assert (= temp154_11 (select ARGNAME_input_NAMEEND_DIMSIZE temp154_10)))
(assert (= temp154_12 #x0000000000000002))
(assert (= temp154_13 temp154_12))
(assert (= temp154_14 (select ARGNAME_input_NAMEEND_DIMSIZE temp154_13)))
(assert (= temp154_15 #x0000000000000003))
(assert (= temp154_16 temp154_15))
(assert (= temp154_17 (select ARGNAME_input_NAMEEND_DIMSIZE temp154_16)))
(assert (= temp154_18 #x0000000000000004))
(assert (= temp154_19 temp154_18))
(assert (= temp154_20 (select ARGNAME_input_NAMEEND_DIMSIZE temp154_19)))
(assert (= temp154_21 #x0000000000000005))
(assert (= temp154_22 temp154_21))
(assert (= temp154_23 (select ARGNAME_input_NAMEEND_DIMSIZE temp154_22)))
(assert (= temp154_25 var82455))
(assert (= temp154_26 (select ARGNAME_input_NAMEEND_DIMSIZE temp154_25)))
(assert (= temp154_24 temp154_26))
(assert (= var82459 (bvsmod temp154_24 ARGNAME_sections_NAMEEND)))
(assert (= temp154_27 #x0000000000000000))
(assert (= var82460 (ite (= var82459 temp154_27) #x0000000000000001 #x0000000000000000)))
(assert (= temp154_28 #x0000000000000001))
(assert (= var82460 temp154_28))
(assert (= var82496 var82441))
(assert (= var140605 var82496))
(assert (= temp154_29 #x0000000000000001))
(assert (= var140635
   (ite (bvslt ARGNAME_input_NAMEEND_DIM temp154_29)
        #x0000000000000001
        #x0000000000000000)))
(assert (= temp154_30 #x0000000000000000))
(assert (= var140635 temp154_30))
(assert (= temp154_31 #x0000000000000001))
(assert (= var140664
   (ite (bvslt ARGNAME_sections_NAMEEND temp154_31)
        #x0000000000000001
        #x0000000000000000)))
(assert (= temp154_32 #x0000000000000000))
(assert (= var140664 temp154_32))
(assert (= temp154_34 #x0000000000000000))
(assert (= temp154_33 temp154_34))
(assert (= temp154_36 #x0000000000000000))
(assert (= temp154_35 temp154_36))
(assert (= var462146
   (ite (bvslt temp154_35 ARGNAME_sections_NAMEEND)
        #x0000000000000001
        #x0000000000000000)))
(assert (= temp154_37
   (ite (= var462146 #x0000000000000001) ARGNAME_sections_NAMEEND temp154_35)))
(assert (= temp154_38 #x0000000000000000))
(assert (= var527687 temp154_38))
(assert (= var593234 var527687))
(assert (= temp154_39 #x0000000000000001))
(assert (= var1130139 temp154_39))
(assert (= temp154_40 #x0000000000000000))
(assert (= var1130188
   (ite (= ARGNAME_input_NAMEEND_DIM temp154_40)
        #x0000000000000001
        #x0000000000000000)))
(assert (= temp154_41 #x0000000000000000))
(assert (= var1130188 temp154_41))
(assert (= temp154_42 #x0000000000000005))
(assert (= var1380938 temp154_42))
(assert (= temp154_43 #x0000000000000005))
(assert (= var2101834 temp154_43))
(assert (= temp154_44 #x0000000000000001))
(assert (= var1130305
   (ite (bvslt var1130139 temp154_44) #x0000000000000001 #x0000000000000000)))
(assert (= temp154_45 #x0000000000000000))
(assert (= var1130305 temp154_45))
(assert (= temp154_46 #x0000000000000000))
(assert (= var3422876 temp154_46))
(assert (= var3422880 var1130139))
(assert (= temp154_47 #x0000000000000000))
(assert (= var3422876 temp154_47))
(assert (= temp154_48 #x0000000000000000))
(assert (= var4072313 temp154_48))
(assert (= var4072317 var3422880))
(assert (= temp154_49 #x0000000000000000))
(assert (= var3422876 temp154_49))
(assert (= temp154_50 #x0000000000000000))
(assert (= var4399993 temp154_50))
(assert (= var4399997 var3422880))
(assert (= temp154_52 #x0000000000000000))
(assert (= temp154_51 temp154_52))
(model-add temp154_1 () (_ BitVec 64) #x0000000000000001)
(model-add temp154_2 () (_ BitVec 64) #x0000000000000000)
(model-add var82411 () (_ BitVec 64) #x0000000000000000)
(model-del k!0)
(model-add ARGNAME_input_NAMEEND_DIM
           ()
           (_ BitVec 64)
           (ite (or k!0 (= #x0000000000000001 #x8000000000000000))
                #x0000000000000001
                (bvsub #x0000000000000001 #x0000000000000001)))





